\ Model QCP
\ LP format - for model browsing. Use MPS format to capture full model detail.
Minimize
  z + 4 y
Subject To
 Cut_0: z + [ 0.7279920870425322 y ^2 ] >= 9769.408506429278
 Cut_1: z + [ 0.1769230769230763 y ^2 ] >= 7145.438461538459
 Cut_2: z + [ 0.0328867235079167 y ^2 ] >= 6337.850182704016
 Cut_3: z + [ 0.027027027027027 y ^2 ] >= 6300.459459459459
Bounds
 6128 <= z <= 40969
 39.7994974842648 <= y <= 79.88116173416608
End
